Traveling Salesman Problem/TSP_generados/Aleatorio1621103692_17.tsp
NAME: Aleatorio1621103692_17.tsp
COMMENT: Randomly generated scenario
TYPE: TSP
DIMENSION: 17
EDGE_WEIGHT_TYPE: ATT
NODE_COORD_SECTION
1 24.62 19.99
2 39.39 21.72
3 38.18 18.09
4 41.36 41.28
5 5.19 33.09
6 16.78 44.13
7 41.35 5.88
8 29.7 5.96
9 17.35 10.39
10 43.07 49.08
11 28.39 35.2
12 7.18 40.93
13 39.63 42.43
14 29.95 42.62
15 1.7 46.96
16 6.97 13.59
17 49.47 15.92
