Traveling Salesman Problem/TSP_generados/Aleatorio1621103692_17.opt.tour
NAME: Aleatorio1621103692_17.opt.tour
COMMENT: Optimal solution for Aleatorio1621103692_17 (194.94932467534645)
TYPE: TOUR
DIMENSION: 17
TOUR_SECTION
1 9 16 5 12 15 6 11 14 10 13 4 2 3 17 7 8
-1
EOF
